# indicates a comment line
# Find minimum energy fcc configuration

####################### Initialize Simulation ######################

units metal  	
dimension 3 	
boundary p p p 	
atom_style atomic 	

read_data data_50.txt

###################### Define Interatomic Potential ######################

pair_style eam/alloy  		
pair_coeff * * FeNiCrCoTi-heamix.setfl.setfl Ni Fe
neighbor 2.0 bin 		
reset_timestep 0

####################### calculated properties SETTINGS ######################

#Define computation of quantities defined on a group of atoms
compute eng all pe/atom 	# a variable named 'eng' is defined to store the potential energy for each atom
compute eatoms all reduce sum c_eng  #a variable named 'eatoms' is defined to store the sum of all 'eng' values
				#c_eng access the eng defined in the first compute command

####################### thermal properties output on screen ###################### 

fix 1 all box/relax iso	0.0 vmax 0.001
thermo 10		        #'thermo' specifies the output during minimization at every 10 steps
thermo_style custom step pe lx ly lz press pxx pyy pzz c_eatoms   #'thermo_style' specifies what type of output is shown to screen eg: pe : potential energy;lx,ly,lz : simulation cell dimensions; press : pressure etc..


# Use cfg for visuvalization

dump 1 all custom 10 dump.dat mass type xs ys zs

min_style cg
minimize 1e-10 1e-10 5000 10000  
variable teng equal "c_eatoms"
variable natoms equal "count(all)"
variable ecoh equal "v_teng/v_natoms"
variable lengthx equal "lx/6"
variable lengthy equal "ly/3"
variable lengthz equal "lz/36"
variable dim equal "lx"
print "cohesive energy ${ecoh}"
print "x_length equals ${lengthx}"
print "y_length equals ${lengthy}"
print "z_length equals ${lengthz}"

variable lp equal ${lengthx}/sqrt(2)
print "lattice parameter equals ${lp}"